benchmarks_vrp/CMT2/min_c/CMT2_8.vrp
NAME: CMT2_8
TYPE: CVRP
COMMENT: 835.26 - Cluster Nr.8
DIMENSION: 7
CAPACITY: 140
EDGE_WEIGHT_TYPE: EUC_2D
NODE_COORD_TYPE: TWOD_COORDS
NODE_COORD_SECTION: 
1 15 14
6 11 28
3 16 19
7 40 40
2 12 17
4 6 25
5 15 5
DEPOT_SECTION: 
7
-1
DEMAND_SECTION: 
7 0
5 28
4 26
3 18
2 15
6 6
1 11
EOF
