benchmarks_vrp/CMT2/min_c/CMT2_8.tour
NAME: CMT2_8 solution
TYPE: TOUR
TOUR_SECTION:
7 3 1 5 2 4 6 -1
-1
EOF